70
978
10
42
94
93
27
75
17
65
99
66
71
0 3
0 5
0 6
0 8
0 10
0 12
0 16
0 17
0 18
0 24
0 27
0 29
0 31
0 36
0 39
0 40
0 41
0 43
0 45
0 46
0 47
0 49
0 51
0 55
0 56
0 60
0 61
0 63
0 68
1 3
1 5
1 7
1 8
1 11
1 12
1 18
1 19
1 23
1 26
1 28
1 31
1 36
1 37
1 39
1 44
1 47
1 48
1 49
1 51
1 55
1 58
1 59
1 61
1 62
1 64
1 65
1 66
2 9
2 11
2 13
2 21
2 25
2 28
2 29
2 30
2 31
2 37
2 39
2 40
2 42
2 43
2 45
2 48
2 50
2 52
2 53
2 54
2 55
2 56
2 64
2 66
2 67
3 5
3 9
3 14
3 18
3 22
3 27
3 38
3 40
3 48
3 51
3 52
3 53
3 54
3 55
3 57
3 58
3 59
3 62
3 66
3 68
4 5
4 6
4 7
4 11
4 12
4 17
4 18
4 19
4 21
4 22
4 23
4 30
4 32
4 33
4 36
4 39
4 40
4 43
4 45
4 47
4 48
4 50
4 58
4 60
4 62
4 65
4 69
5 8
5 9
5 12
5 14
5 17
5 18
5 21
5 22
5 29
5 30
5 31
5 32
5 33
5 39
5 42
5 43
5 45
5 49
5 52
5 54
5 55
5 56
5 59
5 60
5 63
5 67
5 68
6 7
6 10
6 12
6 13
6 14
6 15
6 16
6 17
6 19
6 21
6 23
6 24
6 26
6 30
6 34
6 35
6 37
6 40
6 41
6 43
6 45
6 46
6 47
6 48
6 51
6 52
6 54
6 55
6 57
6 59
6 60
6 61
6 65
7 11
7 13
7 14
7 17
7 18
7 21
7 24
7 27
7 28
7 31
7 33
7 36
7 37
7 42
7 43
7 44
7 46
7 47
7 48
7 50
7 52
7 56
7 58
7 61
7 65
7 66
8 9
8 11
8 15
8 16
8 19
8 22
8 23
8 24
8 26
8 27
8 31
8 35
8 39
8 41
8 42
8 45
8 47
8 49
8 51
8 53
8 54
8 55
8 56
8 59
8 64
8 67
8 69
9 10
9 11
9 12
9 13
9 14
9 17
9 19
9 21
9 27
9 28
9 31
9 35
9 37
9 40
9 44
9 45
9 47
9 52
9 54
9 55
9 56
9 57
9 60
9 63
9 64
9 68
10 11
10 12
10 14
10 15
10 16
10 22
10 26
10 27
10 28
10 35
10 38
10 43
10 44
10 45
10 56
10 62
10 66
10 67
10 69
11 13
11 14
11 18
11 20
11 21
11 22
11 28
11 30
11 31
11 32
11 37
11 38
11 42
11 44
11 45
11 46
11 48
11 50
11 51
11 53
11 54
11 57
11 58
11 59
11 61
11 63
11 67
11 69
12 15
12 19
12 21
12 24
12 25
12 26
12 28
12 31
12 35
12 36
12 37
12 39
12 40
12 42
12 43
12 45
12 47
12 48
12 55
12 61
12 62
12 65
12 68
12 69
13 14
13 16
13 17
13 18
13 19
13 20
13 21
13 24
13 25
13 27
13 28
13 31
13 37
13 38
13 39
13 40
13 41
13 42
13 43
13 44
13 45
13 46
13 48
13 49
13 50
13 52
13 55
13 58
13 61
13 64
14 16
14 17
14 23
14 24
14 25
14 26
14 27
14 28
14 29
14 30
14 31
14 32
14 33
14 34
14 35
14 38
14 39
14 40
14 41
14 43
14 53
14 55
14 56
14 59
14 61
14 63
14 66
15 17
15 18
15 19
15 20
15 23
15 25
15 27
15 28
15 32
15 35
15 38
15 43
15 44
15 46
15 49
15 51
15 54
15 59
15 61
15 63
15 64
15 65
15 66
15 67
15 68
16 20
16 25
16 30
16 31
16 32
16 35
16 36
16 37
16 40
16 44
16 45
16 48
16 53
16 60
16 63
16 67
16 69
17 21
17 24
17 25
17 27
17 28
17 29
17 30
17 32
17 33
17 36
17 37
17 39
17 41
17 44
17 46
17 48
17 49
17 52
17 64
17 65
17 66
17 69
18 24
18 30
18 33
18 40
18 41
18 42
18 43
18 44
18 47
18 51
18 54
18 55
18 57
18 63
18 65
18 68
19 20
19 22
19 28
19 29
19 33
19 37
19 38
19 44
19 45
19 46
19 47
19 50
19 52
19 55
19 63
19 65
19 68
20 21
20 22
20 25
20 27
20 31
20 35
20 41
20 42
20 44
20 50
20 52
20 55
20 57
20 61
20 62
20 63
20 64
20 66
21 25
21 26
21 35
21 40
21 41
21 47
21 50
21 56
21 57
21 59
21 62
21 63
21 65
21 67
22 25
22 30
22 32
22 33
22 34
22 35
22 36
22 41
22 42
22 45
22 46
22 47
22 49
22 52
22 54
22 59
22 62
22 63
22 65
22 66
22 69
23 24
23 25
23 31
23 32
23 33
23 34
23 35
23 40
23 42
23 44
23 51
23 56
23 58
23 59
23 60
23 61
23 65
23 67
23 69
24 25
24 27
24 28
24 29
24 32
24 35
24 37
24 38
24 41
24 42
24 45
24 46
24 49
24 52
24 54
24 55
24 59
24 60
24 61
24 62
24 63
24 67
25 26
25 28
25 29
25 31
25 32
25 33
25 34
25 36
25 39
25 41
25 43
25 45
25 46
25 47
25 51
25 55
25 59
25 63
25 65
25 68
25 69
26 28
26 31
26 32
26 33
26 34
26 43
26 45
26 46
26 48
26 52
26 53
26 54
26 55
26 58
26 60
26 67
27 28
27 35
27 42
27 43
27 44
27 46
27 47
27 49
27 50
27 54
27 55
27 57
27 61
27 65
27 66
27 67
27 69
28 30
28 34
28 36
28 38
28 39
28 41
28 43
28 46
28 51
28 52
28 56
28 59
28 60
28 61
28 62
28 63
28 66
29 30
29 31
29 32
29 34
29 35
29 37
29 38
29 43
29 46
29 56
29 57
29 58
29 60
29 68
30 31
30 32
30 33
30 34
30 35
30 36
30 37
30 38
30 39
30 40
30 42
30 44
30 45
30 53
30 56
30 59
30 60
30 61
30 62
30 63
30 68
30 69
31 33
31 36
31 39
31 41
31 42
31 44
31 45
31 52
31 55
31 59
31 61
31 62
31 63
31 64
31 67
31 68
32 33
32 34
32 35
32 39
32 45
32 49
32 53
32 54
32 55
32 56
32 59
32 62
32 63
32 64
32 65
32 67
32 69
33 35
33 39
33 42
33 44
33 49
33 53
33 55
33 60
33 62
33 63
33 67
33 69
34 36
34 40
34 42
34 43
34 50
34 51
34 53
34 54
34 55
34 56
34 61
34 65
34 66
35 37
35 40
35 43
35 44
35 45
35 47
35 51
35 53
35 54
35 55
35 57
35 63
35 68
36 39
36 40
36 47
36 50
36 51
36 59
36 60
36 65
36 66
36 67
36 68
36 69
37 38
37 41
37 42
37 43
37 44
37 45
37 46
37 52
37 53
37 56
37 59
37 62
37 66
38 40
38 44
38 46
38 48
38 51
38 56
38 57
38 58
38 60
38 63
38 68
39 44
39 45
39 48
39 50
39 52
39 56
39 57
39 58
39 61
39 65
39 66
40 42
40 43
40 46
40 47
40 49
40 52
40 53
40 61
40 63
40 69
41 43
41 44
41 49
41 51
41 53
41 60
41 61
41 64
41 66
42 44
42 45
42 46
42 47
42 50
42 51
42 52
42 53
42 54
42 57
42 59
42 62
42 63
42 64
42 66
42 68
42 69
43 48
43 50
43 51
43 53
43 54
43 57
43 60
43 61
43 62
43 63
43 66
43 67
44 45
44 47
44 48
44 58
44 60
44 62
44 64
44 65
44 68
45 51
45 54
45 56
45 57
45 61
45 64
45 65
45 68
46 47
46 52
46 61
46 63
46 69
47 56
47 60
47 63
47 64
47 67
48 49
48 50
48 51
48 56
48 57
48 60
48 61
48 62
48 63
49 52
49 54
49 57
49 58
49 59
49 61
49 64
49 68
49 69
50 51
50 55
50 60
50 65
50 66
50 68
50 69
51 53
51 54
51 63
51 64
51 65
51 69
52 58
52 59
52 60
52 61
52 63
52 67
52 68
53 55
53 56
53 57
53 58
53 60
53 61
53 65
53 69
54 56
54 57
54 60
54 62
54 68
55 60
55 61
55 66
56 58
56 61
57 58
57 61
57 62
57 63
58 61
58 62
58 63
58 64
58 67
58 68
59 61
59 63
59 65
59 67
59 68
60 63
60 65
60 67
61 62
61 65
61 66
62 63
62 64
62 66
62 68
63 66
63 67
63 68
63 69
64 65
64 68
65 67
66 67
66 68
67 69
5 32 25 48 66 52 11
6 46 33 12 34 51 31
19 49 23 38 30 41 20
59 26 13 60 58 7 21
22 37 16 15 10 8 3
63 42 39 43 4 67 0
65 35 24 17 50 69 64
61 14 56 62 27 68 40
44 54 9 53 47 29 36
18 55 45 2 57 28 1
